13354 14801 14377
15481 14338 13291
12700 15716 12727
15779 14178 12940
13072 12998 14762
16544 12785 12239
14705 14799 13718
15507 13683 13837
14787 14841 13229
16640 12266 12046
15981 14277 11135
15862 14006 13039
14208 15261 11859
11856 15907 11204
16663 12833 11486
16438 12276 12515
13108 15509 13258
16250 13213 12850
15161 14900 11186
13590 15476 12262
16111 14042 11728
14626 14898 13361
16739 11800 10695
13193 12853 14769
14102 15114 13473
14692 14675 14008
14423 15165 11948
15358 14663 12272
16433 13656 11942
12819 15764 11974
16224 14007 10231
13237 15401 13476
14554 14044 14510
14763 14877 13023
13011 15731 10434
15208 14356 13897
12583 15089 14089
13639 15511 11193
13471 15428 13015
13739 15195 13716
14008 15113 13764
15660 14016 13508
14038 14363 14621
13728 13314 14738
